\ Model birth-death-regulation-capture-efficiency
\ LP format - for model browsing. Use MPS format to capture full model detail.
Minimize
  k_reg
Subject To
 R0: k_deg_2 = 1
 B_lb_0,_0: p[0,0] + 0.4 p[0,1] + 0.16 p[0,2] + 0.064 p[0,3]
   + 0.0256 p[0,4] + 0.01024 p[0,5] + 0.4 p[1,0] + 0.16 p[1,1]
   + 0.064 p[1,2] + 0.0256 p[1,3] + 0.01024 p[1,4] + 0.004096 p[1,5]
   + 0.16 p[2,0] + 0.064 p[2,1] + 0.0256 p[2,2] + 0.01024 p[2,3]
   + 0.004096 p[2,4] + 0.0016384 p[2,5] + 0.064 p[3,0] + 0.0256 p[3,1]
   + 0.01024 p[3,2] + 0.004096 p[3,3] + 0.0016384 p[3,4]
   + 0.00065536 p[3,5] + 0.0256 p[4,0] + 0.01024 p[4,1] + 0.004096 p[4,2]
   + 0.0016384 p[4,3] + 0.00065536 p[4,4] + 0.000262144 p[4,5]
   + 0.01024 p[5,0] + 0.004096 p[5,1] + 0.0016384 p[5,2]
   + 0.00065536 p[5,3] + 0.000262144 p[5,4] + 1.0485760000000534e-04 p[5,5]
   >= 0.4487753240740741
 B_ub_0,_0: p[0,0] + 0.4 p[0,1] + 0.16 p[0,2] + 0.064 p[0,3]
   + 0.0256 p[0,4] + 0.01024 p[0,5] + 0.4 p[1,0] + 0.16 p[1,1]
   + 0.064 p[1,2] + 0.0256 p[1,3] + 0.01024 p[1,4] + 0.004096 p[1,5]
   + 0.16 p[2,0] + 0.064 p[2,1] + 0.0256 p[2,2] + 0.01024 p[2,3]
   + 0.004096 p[2,4] + 0.0016384 p[2,5] + 0.064 p[3,0] + 0.0256 p[3,1]
   + 0.01024 p[3,2] + 0.004096 p[3,3] + 0.0016384 p[3,4]
   + 0.00065536 p[3,5] + 0.0256 p[4,0] + 0.01024 p[4,1] + 0.004096 p[4,2]
   + 0.0016384 p[4,3] + 0.00065536 p[4,4] + 0.000262144 p[4,5]
   + 0.01024 p[5,0] + 0.004096 p[5,1] + 0.0016384 p[5,2]
   + 0.00065536 p[5,3] + 0.000262144 p[5,4] + 1.0485760000000534e-04 p[5,5]
   <= 0.497805
 B_lb_0,_1: 0.6 p[0,1] + 0.48 p[0,2] + 0.288 p[0,3] + 0.1536 p[0,4]
   + 0.0768 p[0,5] + 0.24 p[1,1] + 0.192 p[1,2] + 0.1152 p[1,3]
   + 0.06144 p[1,4] + 0.03072 p[1,5] + 0.096 p[2,1] + 0.0768 p[2,2]
   + 0.04608 p[2,3] + 0.024576 p[2,4] + 0.012288 p[2,5] + 0.0384 p[3,1]
   + 0.03072 p[3,2] + 0.018432 p[3,3] + 0.0098304 p[3,4] + 0.0049152 p[3,5]
   + 0.01536 p[4,1] + 0.012288 p[4,2] + 0.0073728 p[4,3]
   + 0.00393216 p[4,4] + 0.00196608 p[4,5] + 0.006144 p[5,1]
   + 0.0049152 p[5,2] + 0.00294912 p[5,3] + 0.00157286399999991 p[5,4]
   + 0.000786432 p[5,5] >= 0.1509803240740741
 B_ub_0,_1: 0.6 p[0,1] + 0.48 p[0,2] + 0.288 p[0,3] + 0.1536 p[0,4]
   + 0.0768 p[0,5] + 0.24 p[1,1] + 0.192 p[1,2] + 0.1152 p[1,3]
   + 0.06144 p[1,4] + 0.03072 p[1,5] + 0.096 p[2,1] + 0.0768 p[2,2]
   + 0.04608 p[2,3] + 0.024576 p[2,4] + 0.012288 p[2,5] + 0.0384 p[3,1]
   + 0.03072 p[3,2] + 0.018432 p[3,3] + 0.0098304 p[3,4] + 0.0049152 p[3,5]
   + 0.01536 p[4,1] + 0.012288 p[4,2] + 0.0073728 p[4,3]
   + 0.00393216 p[4,4] + 0.00196608 p[4,5] + 0.006144 p[5,1]
   + 0.0049152 p[5,2] + 0.00294912 p[5,3] + 0.00157286399999991 p[5,4]
   + 0.000786432 p[5,5] <= 0.193205
 B_lb_0,_2: 0.36 p[0,2] + 0.432 p[0,3] + 0.3456 p[0,4] + 0.2304 p[0,5]
   + 0.144 p[1,2] + 0.1728 p[1,3] + 0.13824 p[1,4] + 0.09216 p[1,5]
   + 0.0576 p[2,2] + 0.06912 p[2,3] + 0.055296 p[2,4] + 0.036864 p[2,5]
   + 0.02304 p[3,2] + 0.027648 p[3,3] + 0.0221184 p[3,4] + 0.0147456 p[3,5]
   + 0.009216 p[4,2] + 0.0110592 p[4,3] + 0.00884736 p[4,4]
   + 0.00589824 p[4,5] + 0.0036864 p[5,2] + 0.00442368 p[5,3]
   + 0.00353894399999981 p[5,4] + 0.00235929599999998 p[5,5]
   >= 0.0131803240740741
 B_ub_0,_2: 0.36 p[0,2] + 0.432 p[0,3] + 0.3456 p[0,4] + 0.2304 p[0,5]
   + 0.144 p[1,2] + 0.1728 p[1,3] + 0.13824 p[1,4] + 0.09216 p[1,5]
   + 0.0576 p[2,2] + 0.06912 p[2,3] + 0.055296 p[2,4] + 0.036864 p[2,5]
   + 0.02304 p[3,2] + 0.027648 p[3,3] + 0.0221184 p[3,4] + 0.0147456 p[3,5]
   + 0.009216 p[4,2] + 0.0110592 p[4,3] + 0.00884736 p[4,4]
   + 0.00589824 p[4,5] + 0.0036864 p[5,2] + 0.00442368 p[5,3]
   + 0.00353894399999981 p[5,4] + 0.00235929599999998 p[5,5] <= 0.0452
 B_lb_0,_3: 0.216 p[0,3] + 0.3456 p[0,4] + 0.3456 p[0,5] + 0.0864 p[1,3]
   + 0.13824 p[1,4] + 0.13824 p[1,5] + 0.03456 p[2,3] + 0.055296 p[2,4]
   + 0.055296 p[2,5] + 0.013824 p[3,3] + 0.0221184 p[3,4]
   + 0.0221184 p[3,5] + 0.0055296 p[4,3] + 0.00884736 p[4,4]
   + 0.00884736 p[4,5] + 0.00221184 p[5,3] + 0.00353894400000016 p[5,4]
   + 0.00353894400000047 p[5,5] >= -0.0170196759259259
 B_ub_0,_3: 0.216 p[0,3] + 0.3456 p[0,4] + 0.3456 p[0,5] + 0.0864 p[1,3]
   + 0.13824 p[1,4] + 0.13824 p[1,5] + 0.03456 p[2,3] + 0.055296 p[2,4]
   + 0.055296 p[2,5] + 0.013824 p[3,3] + 0.0221184 p[3,4]
   + 0.0221184 p[3,5] + 0.0055296 p[4,3] + 0.00884736 p[4,4]
   + 0.00884736 p[4,5] + 0.00221184 p[5,3] + 0.00353894400000016 p[5,4]
   + 0.00353894400000047 p[5,5] <= 0.0082
 B_lb_1,_0: 0.6 p[1,0] + 0.24 p[1,1] + 0.096 p[1,2] + 0.0384 p[1,3]
   + 0.01536 p[1,4] + 0.006144 p[1,5] + 0.48 p[2,0] + 0.192 p[2,1]
   + 0.0768 p[2,2] + 0.03072 p[2,3] + 0.012288 p[2,4] + 0.0049152 p[2,5]
   + 0.288 p[3,0] + 0.1152 p[3,1] + 0.04608 p[3,2] + 0.018432 p[3,3]
   + 0.0073728 p[3,4] + 0.00294912 p[3,5] + 0.1536 p[4,0] + 0.06144 p[4,1]
   + 0.024576 p[4,2] + 0.0098304 p[4,3] + 0.00393216 p[4,4]
   + 0.00157286399999991 p[4,5] + 0.0768 p[5,0] + 0.03072 p[5,1]
   + 0.012288 p[5,2] + 0.0049152 p[5,3] + 0.00196608 p[5,4]
   + 0.000786432 p[5,5] >= 0.1519803240740741
 B_ub_1,_0: 0.6 p[1,0] + 0.24 p[1,1] + 0.096 p[1,2] + 0.0384 p[1,3]
   + 0.01536 p[1,4] + 0.006144 p[1,5] + 0.48 p[2,0] + 0.192 p[2,1]
   + 0.0768 p[2,2] + 0.03072 p[2,3] + 0.012288 p[2,4] + 0.0049152 p[2,5]
   + 0.288 p[3,0] + 0.1152 p[3,1] + 0.04608 p[3,2] + 0.018432 p[3,3]
   + 0.0073728 p[3,4] + 0.00294912 p[3,5] + 0.1536 p[4,0] + 0.06144 p[4,1]
   + 0.024576 p[4,2] + 0.0098304 p[4,3] + 0.00393216 p[4,4]
   + 0.00157286399999991 p[4,5] + 0.0768 p[5,0] + 0.03072 p[5,1]
   + 0.012288 p[5,2] + 0.0049152 p[5,3] + 0.00196608 p[5,4]
   + 0.000786432 p[5,5] <= 0.1946
 B_lb_1,_1: 0.36 p[1,1] + 0.288 p[1,2] + 0.1728 p[1,3] + 0.09216 p[1,4]
   + 0.04608 p[1,5] + 0.288 p[2,1] + 0.2304 p[2,2] + 0.13824 p[2,3]
   + 0.073728 p[2,4] + 0.036864 p[2,5] + 0.1728 p[3,1] + 0.13824 p[3,2]
   + 0.082944 p[3,3] + 0.0442368 p[3,4] + 0.0221184 p[3,5] + 0.09216 p[4,1]
   + 0.073728 p[4,2] + 0.0442368 p[4,3] + 0.0235929600000013 p[4,4]
   + 0.0117964799999994 p[4,5] + 0.04608 p[5,1] + 0.036864 p[5,2]
   + 0.0221184 p[5,3] + 0.0117964799999994 p[5,4] + 0.00589824 p[5,5]
   >= 0.0141803240740741
 B_ub_1,_1: 0.36 p[1,1] + 0.288 p[1,2] + 0.1728 p[1,3] + 0.09216 p[1,4]
   + 0.04608 p[1,5] + 0.288 p[2,1] + 0.2304 p[2,2] + 0.13824 p[2,3]
   + 0.073728 p[2,4] + 0.036864 p[2,5] + 0.1728 p[3,1] + 0.13824 p[3,2]
   + 0.082944 p[3,3] + 0.0442368 p[3,4] + 0.0221184 p[3,5] + 0.09216 p[4,1]
   + 0.073728 p[4,2] + 0.0442368 p[4,3] + 0.0235929600000013 p[4,4]
   + 0.0117964799999994 p[4,5] + 0.04608 p[5,1] + 0.036864 p[5,2]
   + 0.0221184 p[5,3] + 0.0117964799999994 p[5,4] + 0.00589824 p[5,5]
   <= 0.046
 B_lb_1,_2: 0.216 p[1,2] + 0.2592 p[1,3] + 0.20736 p[1,4] + 0.13824 p[1,5]
   + 0.1728 p[2,2] + 0.20736 p[2,3] + 0.165888 p[2,4] + 0.110592 p[2,5]
   + 0.10368 p[3,2] + 0.124416 p[3,3] + 0.0995328 p[3,4] + 0.0663552 p[3,5]
   + 0.055296 p[4,2] + 0.0663552 p[4,3] + 0.0530841599999977 p[4,4]
   + 0.0353894400000016 p[4,5] + 0.027648 p[5,2] + 0.0331776 p[5,3]
   + 0.0265420800000012 p[5,4] + 0.0176947200000024 p[5,5]
   >= -0.0158196759259259
 B_ub_1,_2: 0.216 p[1,2] + 0.2592 p[1,3] + 0.20736 p[1,4] + 0.13824 p[1,5]
   + 0.1728 p[2,2] + 0.20736 p[2,3] + 0.165888 p[2,4] + 0.110592 p[2,5]
   + 0.10368 p[3,2] + 0.124416 p[3,3] + 0.0995328 p[3,4] + 0.0663552 p[3,5]
   + 0.055296 p[4,2] + 0.0663552 p[4,3] + 0.0530841599999977 p[4,4]
   + 0.0353894400000016 p[4,5] + 0.027648 p[5,2] + 0.0331776 p[5,3]
   + 0.0265420800000012 p[5,4] + 0.0176947200000024 p[5,5] <= 0.0102
 B_lb_1,_3: 0.1296 p[1,3] + 0.20736 p[1,4] + 0.20736 p[1,5]
   + 0.10368 p[2,3] + 0.165888 p[2,4] + 0.165888 p[2,5] + 0.062208 p[3,3]
   + 0.0995328 p[3,4] + 0.0995328 p[3,5] + 0.0331776 p[4,3]
   + 0.0530841599999987 p[4,4] + 0.0530841599999938 p[4,5]
   + 0.0165888 p[5,3] + 0.0265420799999969 p[5,4]
   + 0.0265420799999994 p[5,5] >= -0.0210196759259259
 B_ub_1,_3: 0.1296 p[1,3] + 0.20736 p[1,4] + 0.20736 p[1,5]
   + 0.10368 p[2,3] + 0.165888 p[2,4] + 0.165888 p[2,5] + 0.062208 p[3,3]
   + 0.0995328 p[3,4] + 0.0995328 p[3,5] + 0.0331776 p[4,3]
   + 0.0530841599999987 p[4,4] + 0.0530841599999938 p[4,5]
   + 0.0165888 p[5,3] + 0.0265420799999969 p[5,4]
   + 0.0265420799999994 p[5,5] <= 1
 B_lb_2,_0: 0.36 p[2,0] + 0.144 p[2,1] + 0.0576 p[2,2] + 0.02304 p[2,3]
   + 0.009216 p[2,4] + 0.0036864 p[2,5] + 0.432 p[3,0] + 0.1728 p[3,1]
   + 0.06912 p[3,2] + 0.027648 p[3,3] + 0.0110592 p[3,4]
   + 0.00442368 p[3,5] + 0.3456 p[4,0] + 0.13824 p[4,1] + 0.055296 p[4,2]
   + 0.0221184 p[4,3] + 0.00884736 p[4,4] + 0.00353894399999981 p[4,5]
   + 0.2304 p[5,0] + 0.09216 p[5,1] + 0.036864 p[5,2] + 0.0147456 p[5,3]
   + 0.00589824 p[5,4] + 0.00235929599999998 p[5,5] >= 0.0127803240740741
 B_ub_2,_0: 0.36 p[2,0] + 0.144 p[2,1] + 0.0576 p[2,2] + 0.02304 p[2,3]
   + 0.009216 p[2,4] + 0.0036864 p[2,5] + 0.432 p[3,0] + 0.1728 p[3,1]
   + 0.06912 p[3,2] + 0.027648 p[3,3] + 0.0110592 p[3,4]
   + 0.00442368 p[3,5] + 0.3456 p[4,0] + 0.13824 p[4,1] + 0.055296 p[4,2]
   + 0.0221184 p[4,3] + 0.00884736 p[4,4] + 0.00353894399999981 p[4,5]
   + 0.2304 p[5,0] + 0.09216 p[5,1] + 0.036864 p[5,2] + 0.0147456 p[5,3]
   + 0.00589824 p[5,4] + 0.00235929599999998 p[5,5] <= 0.0446
 B_lb_2,_1: 0.216 p[2,1] + 0.1728 p[2,2] + 0.10368 p[2,3] + 0.055296 p[2,4]
   + 0.027648 p[2,5] + 0.2592 p[3,1] + 0.20736 p[3,2] + 0.124416 p[3,3]
   + 0.0663552 p[3,4] + 0.0331776 p[3,5] + 0.20736 p[4,1] + 0.165888 p[4,2]
   + 0.0995328 p[4,3] + 0.0530841599999977 p[4,4]
   + 0.0265420800000012 p[4,5] + 0.13824 p[5,1] + 0.110592 p[5,2]
   + 0.0663552 p[5,3] + 0.0353894400000016 p[5,4]
   + 0.0176947200000024 p[5,5] >= -0.0158196759259259
 B_ub_2,_1: 0.216 p[2,1] + 0.1728 p[2,2] + 0.10368 p[2,3] + 0.055296 p[2,4]
   + 0.027648 p[2,5] + 0.2592 p[3,1] + 0.20736 p[3,2] + 0.124416 p[3,3]
   + 0.0663552 p[3,4] + 0.0331776 p[3,5] + 0.20736 p[4,1] + 0.165888 p[4,2]
   + 0.0995328 p[4,3] + 0.0530841599999977 p[4,4]
   + 0.0265420800000012 p[4,5] + 0.13824 p[5,1] + 0.110592 p[5,2]
   + 0.0663552 p[5,3] + 0.0353894400000016 p[5,4]
   + 0.0176947200000024 p[5,5] <= 0.01
 B_lb_2,_2: 0.1296 p[2,2] + 0.15552 p[2,3] + 0.124416 p[2,4]
   + 0.082944 p[2,5] + 0.15552 p[3,2] + 0.186624 p[3,3]
   + 0.1492991999999917 p[3,4] + 0.0995328 p[3,5] + 0.124416 p[4,2]
   + 0.1492991999999917 p[4,3] + 0.1194393599999972 p[4,4]
   + 0.0796262399999908 p[4,5] + 0.082944 p[5,2] + 0.0995328 p[5,3]
   + 0.0796262399999908 p[5,4] + 0.0530841599999989 p[5,5]
   >= -0.0210196759259259
 B_ub_2,_2: 0.1296 p[2,2] + 0.15552 p[2,3] + 0.124416 p[2,4]
   + 0.082944 p[2,5] + 0.15552 p[3,2] + 0.186624 p[3,3]
   + 0.1492991999999917 p[3,4] + 0.0995328 p[3,5] + 0.124416 p[4,2]
   + 0.1492991999999917 p[4,3] + 0.1194393599999972 p[4,4]
   + 0.0796262399999908 p[4,5] + 0.082944 p[5,2] + 0.0995328 p[5,3]
   + 0.0796262399999908 p[5,4] + 0.0530841599999989 p[5,5] <= 1
 B_lb_2,_3: 0.07776 p[2,3] + 0.124416 p[2,4] + 0.124416 p[2,5]
   + 0.093312 p[3,3] + 0.1492992000000122 p[3,4]
   + 0.1492991999999933 p[3,5] + 0.0746496 p[4,3]
   + 0.1194393599999947 p[4,4] + 0.1194393600000073 p[4,5]
   + 0.0497664 p[5,3] + 0.0796262400000048 p[5,4]
   + 0.0796262400000085 p[5,5] >= -0.0210196759259259
 B_ub_2,_3: 0.07776 p[2,3] + 0.124416 p[2,4] + 0.124416 p[2,5]
   + 0.093312 p[3,3] + 0.1492992000000122 p[3,4]
   + 0.1492991999999933 p[3,5] + 0.0746496 p[4,3]
   + 0.1194393599999947 p[4,4] + 0.1194393600000073 p[4,5]
   + 0.0497664 p[5,3] + 0.0796262400000048 p[5,4]
   + 0.0796262400000085 p[5,5] <= 1
 B_lb_3,_0: 0.216 p[3,0] + 0.0864 p[3,1] + 0.03456 p[3,2] + 0.013824 p[3,3]
   + 0.0055296 p[3,4] + 0.00221184 p[3,5] + 0.3456 p[4,0] + 0.13824 p[4,1]
   + 0.055296 p[4,2] + 0.0221184 p[4,3] + 0.00884736 p[4,4]
   + 0.00353894400000016 p[4,5] + 0.3456 p[5,0] + 0.13824 p[5,1]
   + 0.055296 p[5,2] + 0.0221184 p[5,3] + 0.00884736 p[5,4]
   + 0.00353894400000047 p[5,5] >= -0.0180196759259259
 B_ub_3,_0: 0.216 p[3,0] + 0.0864 p[3,1] + 0.03456 p[3,2] + 0.013824 p[3,3]
   + 0.0055296 p[3,4] + 0.00221184 p[3,5] + 0.3456 p[4,0] + 0.13824 p[4,1]
   + 0.055296 p[4,2] + 0.0221184 p[4,3] + 0.00884736 p[4,4]
   + 0.00353894400000016 p[4,5] + 0.3456 p[5,0] + 0.13824 p[5,1]
   + 0.055296 p[5,2] + 0.0221184 p[5,3] + 0.00884736 p[5,4]
   + 0.00353894400000047 p[5,5] <= 0.0068
 B_lb_3,_1: 0.1296 p[3,1] + 0.10368 p[3,2] + 0.062208 p[3,3]
   + 0.0331776 p[3,4] + 0.0165888 p[3,5] + 0.20736 p[4,1] + 0.165888 p[4,2]
   + 0.0995328 p[4,3] + 0.0530841599999987 p[4,4]
   + 0.0265420799999969 p[4,5] + 0.20736 p[5,1] + 0.165888 p[5,2]
   + 0.0995328 p[5,3] + 0.0530841599999938 p[5,4]
   + 0.0265420799999994 p[5,5] >= -0.0210196759259259
 B_ub_3,_1: 0.1296 p[3,1] + 0.10368 p[3,2] + 0.062208 p[3,3]
   + 0.0331776 p[3,4] + 0.0165888 p[3,5] + 0.20736 p[4,1] + 0.165888 p[4,2]
   + 0.0995328 p[4,3] + 0.0530841599999987 p[4,4]
   + 0.0265420799999969 p[4,5] + 0.20736 p[5,1] + 0.165888 p[5,2]
   + 0.0995328 p[5,3] + 0.0530841599999938 p[5,4]
   + 0.0265420799999994 p[5,5] <= 1
 B_lb_3,_2: 0.07776 p[3,2] + 0.093312 p[3,3] + 0.0746496 p[3,4]
   + 0.0497664 p[3,5] + 0.124416 p[4,2] + 0.1492992000000122 p[4,3]
   + 0.1194393599999947 p[4,4] + 0.0796262400000048 p[4,5]
   + 0.124416 p[5,2] + 0.1492991999999933 p[5,3]
   + 0.1194393600000073 p[5,4] + 0.0796262400000085 p[5,5]
   >= -0.0210196759259259
 B_ub_3,_2: 0.07776 p[3,2] + 0.093312 p[3,3] + 0.0746496 p[3,4]
   + 0.0497664 p[3,5] + 0.124416 p[4,2] + 0.1492992000000122 p[4,3]
   + 0.1194393599999947 p[4,4] + 0.0796262400000048 p[4,5]
   + 0.124416 p[5,2] + 0.1492991999999933 p[5,3]
   + 0.1194393600000073 p[5,4] + 0.0796262400000085 p[5,5] <= 1
 B_lb_3,_3: 0.046656 p[3,3] + 0.0746496 p[3,4] + 0.0746496 p[3,5]
   + 0.0746496 p[4,3] + 0.1194393600000012 p[4,4]
   + 0.1194393600000109 p[4,5] + 0.0746496 p[5,3]
   + 0.1194393600000109 p[5,4] + 0.1194393599999905 p[5,5]
   >= -0.0210196759259259
 B_ub_3,_3: 0.046656 p[3,3] + 0.0746496 p[3,4] + 0.0746496 p[3,5]
   + 0.0746496 p[4,3] + 0.1194393600000012 p[4,4]
   + 0.1194393600000109 p[4,5] + 0.0746496 p[5,3]
   + 0.1194393600000109 p[5,4] + 0.1194393599999905 p[5,5] <= 1
 B_marginal_lb_0: p1[0] + 0.4 p1[1] + 0.16 p1[2] + 0.064 p1[3]
   + 0.0256 p1[4] + 0.01024 p1[5] >= 0.5991208333333333
 B_marginal_ub_0: p1[0] + 0.4 p1[1] + 0.16 p1[2] + 0.064 p1[3]
   + 0.0256 p1[4] + 0.01024 p1[5] <= 0.7254
 B_marginal_lb_1: 0.6 p1[1] + 0.48 p1[2] + 0.288 p1[3] + 0.1536 p1[4]
   + 0.0768 p1[5] >= 0.1205208333333334
 B_marginal_ub_1: 0.6 p1[1] + 0.48 p1[2] + 0.288 p1[3] + 0.1536 p1[4]
   + 0.0768 p1[5] <= 0.2454
 B_marginal_lb_2: 0.36 p1[2] + 0.432 p1[3] + 0.3456 p1[4] + 0.2304 p1[5]
   >= -0.0596791666666666
 B_marginal_ub_2: 0.36 p1[2] + 0.432 p1[3] + 0.3456 p1[4] + 0.2304 p1[5]
   <= 0.0532
 B_marginal_lb_3: 0.216 p1[3] + 0.3456 p1[4] + 0.3456 p1[5]
   >= -0.0978791666666666
 B_marginal_ub_3: 0.216 p1[3] + 0.3456 p1[4] + 0.3456 p1[5] <= 0.007405
 B_marginal_lb_0: p2[0] + 0.4 p2[1] + 0.16 p2[2] + 0.064 p2[3]
   + 0.0256 p2[4] + 0.01024 p2[5] >= 0.5967430555555556
 B_marginal_ub_0: p2[0] + 0.4 p2[1] + 0.16 p2[2] + 0.064 p2[3]
   + 0.0256 p2[4] + 0.01024 p2[5] <= 0.7248
 B_marginal_lb_1: 0.6 p2[1] + 0.48 p2[2] + 0.288 p2[3] + 0.1536 p2[4]
   + 0.0768 p2[5] >= 0.1167430555555555
 B_marginal_ub_1: 0.6 p2[1] + 0.48 p2[2] + 0.288 p2[3] + 0.1536 p2[4]
   + 0.0768 p2[5] <= 0.2428
 B_marginal_lb_2: 0.36 p2[2] + 0.432 p2[3] + 0.3456 p2[4] + 0.2304 p2[5]
   >= -0.0612569444444444
 B_marginal_ub_2: 0.36 p2[2] + 0.432 p2[3] + 0.3456 p2[4] + 0.2304 p2[5]
   <= 0.0536
 B_marginal_lb_3: 0.216 p2[3] + 0.3456 p2[4] + 0.3456 p2[5]
   >= -0.0976569444444444
 B_marginal_ub_3: 0.216 p2[3] + 0.3456 p2[4] + 0.3456 p2[5] <= 0.01
 frechet_lb_0,_0: - p[0,0] + p1[0] + p2[0] <= 1
 frechet_ub_x1_0: p[0,0] - p1[0] <= 0
 frechet_ub_x2_0: p[0,0] - p2[0] <= 0
 frechet_lb_0,_1: - p[0,1] + p1[0] + p2[1] <= 1
 frechet_ub_x1_0: p[0,1] - p1[0] <= 0
 frechet_ub_x2_1: p[0,1] - p2[1] <= 0
 frechet_lb_0,_2: - p[0,2] + p1[0] + p2[2] <= 1
 frechet_ub_x1_0: p[0,2] - p1[0] <= 0
 frechet_ub_x2_2: p[0,2] - p2[2] <= 0
 frechet_lb_0,_3: - p[0,3] + p1[0] + p2[3] <= 1
 frechet_ub_x1_0: p[0,3] - p1[0] <= 0
 frechet_ub_x2_3: p[0,3] - p2[3] <= 0
 frechet_lb_0,_4: - p[0,4] + p1[0] + p2[4] <= 1
 frechet_ub_x1_0: p[0,4] - p1[0] <= 0
 frechet_ub_x2_4: p[0,4] - p2[4] <= 0
 frechet_lb_0,_5: - p[0,5] + p1[0] + p2[5] <= 1
 frechet_ub_x1_0: p[0,5] - p1[0] <= 0
 frechet_ub_x2_5: p[0,5] - p2[5] <= 0
 frechet_lb_1,_0: - p[1,0] + p1[1] + p2[0] <= 1
 frechet_ub_x1_1: p[1,0] - p1[1] <= 0
 frechet_ub_x2_0: p[1,0] - p2[0] <= 0
 frechet_lb_1,_1: - p[1,1] + p1[1] + p2[1] <= 1
 frechet_ub_x1_1: p[1,1] - p1[1] <= 0
 frechet_ub_x2_1: p[1,1] - p2[1] <= 0
 frechet_lb_1,_2: - p[1,2] + p1[1] + p2[2] <= 1
 frechet_ub_x1_1: p[1,2] - p1[1] <= 0
 frechet_ub_x2_2: p[1,2] - p2[2] <= 0
 frechet_lb_1,_3: - p[1,3] + p1[1] + p2[3] <= 1
 frechet_ub_x1_1: p[1,3] - p1[1] <= 0
 frechet_ub_x2_3: p[1,3] - p2[3] <= 0
 frechet_lb_1,_4: - p[1,4] + p1[1] + p2[4] <= 1
 frechet_ub_x1_1: p[1,4] - p1[1] <= 0
 frechet_ub_x2_4: p[1,4] - p2[4] <= 0
 frechet_lb_1,_5: - p[1,5] + p1[1] + p2[5] <= 1
 frechet_ub_x1_1: p[1,5] - p1[1] <= 0
 frechet_ub_x2_5: p[1,5] - p2[5] <= 0
 frechet_lb_2,_0: - p[2,0] + p1[2] + p2[0] <= 1
 frechet_ub_x1_2: p[2,0] - p1[2] <= 0
 frechet_ub_x2_0: p[2,0] - p2[0] <= 0
 frechet_lb_2,_1: - p[2,1] + p1[2] + p2[1] <= 1
 frechet_ub_x1_2: p[2,1] - p1[2] <= 0
 frechet_ub_x2_1: p[2,1] - p2[1] <= 0
 frechet_lb_2,_2: - p[2,2] + p1[2] + p2[2] <= 1
 frechet_ub_x1_2: p[2,2] - p1[2] <= 0
 frechet_ub_x2_2: p[2,2] - p2[2] <= 0
 frechet_lb_2,_3: - p[2,3] + p1[2] + p2[3] <= 1
 frechet_ub_x1_2: p[2,3] - p1[2] <= 0
 frechet_ub_x2_3: p[2,3] - p2[3] <= 0
 frechet_lb_2,_4: - p[2,4] + p1[2] + p2[4] <= 1
 frechet_ub_x1_2: p[2,4] - p1[2] <= 0
 frechet_ub_x2_4: p[2,4] - p2[4] <= 0
 frechet_lb_2,_5: - p[2,5] + p1[2] + p2[5] <= 1
 frechet_ub_x1_2: p[2,5] - p1[2] <= 0
 frechet_ub_x2_5: p[2,5] - p2[5] <= 0
 frechet_lb_3,_0: - p[3,0] + p1[3] + p2[0] <= 1
 frechet_ub_x1_3: p[3,0] - p1[3] <= 0
 frechet_ub_x2_0: p[3,0] - p2[0] <= 0
 frechet_lb_3,_1: - p[3,1] + p1[3] + p2[1] <= 1
 frechet_ub_x1_3: p[3,1] - p1[3] <= 0
 frechet_ub_x2_1: p[3,1] - p2[1] <= 0
 frechet_lb_3,_2: - p[3,2] + p1[3] + p2[2] <= 1
 frechet_ub_x1_3: p[3,2] - p1[3] <= 0
 frechet_ub_x2_2: p[3,2] - p2[2] <= 0
 frechet_lb_3,_3: - p[3,3] + p1[3] + p2[3] <= 1
 frechet_ub_x1_3: p[3,3] - p1[3] <= 0
 frechet_ub_x2_3: p[3,3] - p2[3] <= 0
 frechet_lb_3,_4: - p[3,4] + p1[3] + p2[4] <= 1
 frechet_ub_x1_3: p[3,4] - p1[3] <= 0
 frechet_ub_x2_4: p[3,4] - p2[4] <= 0
 frechet_lb_3,_5: - p[3,5] + p1[3] + p2[5] <= 1
 frechet_ub_x1_3: p[3,5] - p1[3] <= 0
 frechet_ub_x2_5: p[3,5] - p2[5] <= 0
 frechet_lb_4,_0: - p[4,0] + p1[4] + p2[0] <= 1
 frechet_ub_x1_4: p[4,0] - p1[4] <= 0
 frechet_ub_x2_0: p[4,0] - p2[0] <= 0
 frechet_lb_4,_1: - p[4,1] + p1[4] + p2[1] <= 1
 frechet_ub_x1_4: p[4,1] - p1[4] <= 0
 frechet_ub_x2_1: p[4,1] - p2[1] <= 0
 frechet_lb_4,_2: - p[4,2] + p1[4] + p2[2] <= 1
 frechet_ub_x1_4: p[4,2] - p1[4] <= 0
 frechet_ub_x2_2: p[4,2] - p2[2] <= 0
 frechet_lb_4,_3: - p[4,3] + p1[4] + p2[3] <= 1
 frechet_ub_x1_4: p[4,3] - p1[4] <= 0
 frechet_ub_x2_3: p[4,3] - p2[3] <= 0
 frechet_lb_4,_4: - p[4,4] + p1[4] + p2[4] <= 1
 frechet_ub_x1_4: p[4,4] - p1[4] <= 0
 frechet_ub_x2_4: p[4,4] - p2[4] <= 0
 frechet_lb_4,_5: - p[4,5] + p1[4] + p2[5] <= 1
 frechet_ub_x1_4: p[4,5] - p1[4] <= 0
 frechet_ub_x2_5: p[4,5] - p2[5] <= 0
 frechet_lb_5,_0: - p[5,0] + p1[5] + p2[0] <= 1
 frechet_ub_x1_5: p[5,0] - p1[5] <= 0
 frechet_ub_x2_0: p[5,0] - p2[0] <= 0
 frechet_lb_5,_1: - p[5,1] + p1[5] + p2[1] <= 1
 frechet_ub_x1_5: p[5,1] - p1[5] <= 0
 frechet_ub_x2_1: p[5,1] - p2[1] <= 0
 frechet_lb_5,_2: - p[5,2] + p1[5] + p2[2] <= 1
 frechet_ub_x1_5: p[5,2] - p1[5] <= 0
 frechet_ub_x2_2: p[5,2] - p2[2] <= 0
 frechet_lb_5,_3: - p[5,3] + p1[5] + p2[3] <= 1
 frechet_ub_x1_5: p[5,3] - p1[5] <= 0
 frechet_ub_x2_3: p[5,3] - p2[3] <= 0
 frechet_lb_5,_4: - p[5,4] + p1[5] + p2[4] <= 1
 frechet_ub_x1_5: p[5,4] - p1[5] <= 0
 frechet_ub_x2_4: p[5,4] - p2[4] <= 0
 frechet_lb_5,_5: - p[5,5] + p1[5] + p2[5] <= 1
 frechet_ub_x1_5: p[5,5] - p1[5] <= 0
 frechet_ub_x2_5: p[5,5] - p2[5] <= 0
 Distribution: p[0,0] + p[0,1] + p[0,2] + p[0,3] + p[0,4] + p[0,5] + p[1,0]
   + p[1,1] + p[1,2] + p[1,3] + p[1,4] + p[1,5] + p[2,0] + p[2,1] + p[2,2]
   + p[2,3] + p[2,4] + p[2,5] + p[3,0] + p[3,1] + p[3,2] + p[3,3] + p[3,4]
   + p[3,5] + p[4,0] + p[4,1] + p[4,2] + p[4,3] + p[4,4] + p[4,5] + p[5,0]
   + p[5,1] + p[5,2] + p[5,3] + p[5,4] + p[5,5] <= 1
 Distribution_x1: p1[0] + p1[1] + p1[2] + p1[3] + p1[4] + p1[5] <= 1
 Distribution_x2: p2[0] + p2[1] + p2[2] + p2[3] + p2[4] + p2[5] <= 1
 Equation_0,_0: [ - p[0,0] * k_tx_1 - p[0,0] * k_tx_2 + p[0,1] * k_deg_2
   + p[1,0] * k_deg_1 + p[1,1] * k_reg ] = 0
 Equation_0,_1: [ p[0,0] * k_tx_2 - p[0,1] * k_tx_1 - p[0,1] * k_tx_2
   - p[0,1] * k_deg_2 + 2 p[0,2] * k_deg_2 + p[1,1] * k_deg_1
   + 2 p[1,2] * k_reg ] = 0
 Equation_0,_2: [ p[0,1] * k_tx_2 - p[0,2] * k_tx_1 - p[0,2] * k_tx_2
   - 2 p[0,2] * k_deg_2 + 3 p[0,3] * k_deg_2 + p[1,2] * k_deg_1
   + 3 p[1,3] * k_reg ] = 0
 Equation_0,_3: [ p[0,2] * k_tx_2 - p[0,3] * k_tx_1 - p[0,3] * k_tx_2
   - 3 p[0,3] * k_deg_2 + 4 p[0,4] * k_deg_2 + p[1,3] * k_deg_1
   + 4 p[1,4] * k_reg ] = 0
 Equation_0,_4: [ p[0,3] * k_tx_2 - p[0,4] * k_tx_1 - p[0,4] * k_tx_2
   - 4 p[0,4] * k_deg_2 + 5 p[0,5] * k_deg_2 + p[1,4] * k_deg_1
   + 5 p[1,5] * k_reg ] = 0
 Equation_1,_0: [ p[0,0] * k_tx_1 - p[1,0] * k_tx_1 - p[1,0] * k_tx_2
   - p[1,0] * k_deg_1 + p[1,1] * k_deg_2 + 2 p[2,0] * k_deg_1
   + 2 p[2,1] * k_reg ] = 0
 Equation_1,_1: [ p[0,1] * k_tx_1 + p[1,0] * k_tx_2 - p[1,1] * k_tx_1
   - p[1,1] * k_tx_2 - p[1,1] * k_deg_1 - p[1,1] * k_deg_2 - p[1,1] * k_reg
   + 2 p[1,2] * k_deg_2 + 2 p[2,1] * k_deg_1 + 4 p[2,2] * k_reg ] = 0
 Equation_1,_2: [ p[0,2] * k_tx_1 + p[1,1] * k_tx_2 - p[1,2] * k_tx_1
   - p[1,2] * k_tx_2 - p[1,2] * k_deg_1 - 2 p[1,2] * k_deg_2
   - 2 p[1,2] * k_reg + 3 p[1,3] * k_deg_2 + 2 p[2,2] * k_deg_1
   + 6 p[2,3] * k_reg ] = 0
 Equation_1,_3: [ p[0,3] * k_tx_1 + p[1,2] * k_tx_2 - p[1,3] * k_tx_1
   - p[1,3] * k_tx_2 - p[1,3] * k_deg_1 - 3 p[1,3] * k_deg_2
   - 3 p[1,3] * k_reg + 4 p[1,4] * k_deg_2 + 2 p[2,3] * k_deg_1
   + 8 p[2,4] * k_reg ] = 0
 Equation_1,_4: [ p[0,4] * k_tx_1 + p[1,3] * k_tx_2 - p[1,4] * k_tx_1
   - p[1,4] * k_tx_2 - p[1,4] * k_deg_1 - 4 p[1,4] * k_deg_2
   - 4 p[1,4] * k_reg + 5 p[1,5] * k_deg_2 + 2 p[2,4] * k_deg_1
   + 10 p[2,5] * k_reg ] = 0
 Equation_2,_0: [ p[1,0] * k_tx_1 - p[2,0] * k_tx_1 - p[2,0] * k_tx_2
   - 2 p[2,0] * k_deg_1 + p[2,1] * k_deg_2 + 3 p[3,0] * k_deg_1
   + 3 p[3,1] * k_reg ] = 0
 Equation_2,_1: [ p[1,1] * k_tx_1 + p[2,0] * k_tx_2 - p[2,1] * k_tx_1
   - p[2,1] * k_tx_2 - 2 p[2,1] * k_deg_1 - p[2,1] * k_deg_2
   - 2 p[2,1] * k_reg + 2 p[2,2] * k_deg_2 + 3 p[3,1] * k_deg_1
   + 6 p[3,2] * k_reg ] = 0
 Equation_2,_2: [ p[1,2] * k_tx_1 + p[2,1] * k_tx_2 - p[2,2] * k_tx_1
   - p[2,2] * k_tx_2 - 2 p[2,2] * k_deg_1 - 2 p[2,2] * k_deg_2
   - 4 p[2,2] * k_reg + 3 p[2,3] * k_deg_2 + 3 p[3,2] * k_deg_1
   + 9 p[3,3] * k_reg ] = 0
 Equation_2,_3: [ p[1,3] * k_tx_1 + p[2,2] * k_tx_2 - p[2,3] * k_tx_1
   - p[2,3] * k_tx_2 - 2 p[2,3] * k_deg_1 - 3 p[2,3] * k_deg_2
   - 6 p[2,3] * k_reg + 4 p[2,4] * k_deg_2 + 3 p[3,3] * k_deg_1
   + 12 p[3,4] * k_reg ] = 0
 Equation_2,_4: [ p[1,4] * k_tx_1 + p[2,3] * k_tx_2 - p[2,4] * k_tx_1
   - p[2,4] * k_tx_2 - 2 p[2,4] * k_deg_1 - 4 p[2,4] * k_deg_2
   - 8 p[2,4] * k_reg + 5 p[2,5] * k_deg_2 + 3 p[3,4] * k_deg_1
   + 15 p[3,5] * k_reg ] = 0
 Equation_3,_0: [ p[2,0] * k_tx_1 - p[3,0] * k_tx_1 - p[3,0] * k_tx_2
   - 3 p[3,0] * k_deg_1 + p[3,1] * k_deg_2 + 4 p[4,0] * k_deg_1
   + 4 p[4,1] * k_reg ] = 0
 Equation_3,_1: [ p[2,1] * k_tx_1 + p[3,0] * k_tx_2 - p[3,1] * k_tx_1
   - p[3,1] * k_tx_2 - 3 p[3,1] * k_deg_1 - p[3,1] * k_deg_2
   - 3 p[3,1] * k_reg + 2 p[3,2] * k_deg_2 + 4 p[4,1] * k_deg_1
   + 8 p[4,2] * k_reg ] = 0
 Equation_3,_2: [ p[2,2] * k_tx_1 + p[3,1] * k_tx_2 - p[3,2] * k_tx_1
   - p[3,2] * k_tx_2 - 3 p[3,2] * k_deg_1 - 2 p[3,2] * k_deg_2
   - 6 p[3,2] * k_reg + 3 p[3,3] * k_deg_2 + 4 p[4,2] * k_deg_1
   + 12 p[4,3] * k_reg ] = 0
 Equation_3,_3: [ p[2,3] * k_tx_1 + p[3,2] * k_tx_2 - p[3,3] * k_tx_1
   - p[3,3] * k_tx_2 - 3 p[3,3] * k_deg_1 - 3 p[3,3] * k_deg_2
   - 9 p[3,3] * k_reg + 4 p[3,4] * k_deg_2 + 4 p[4,3] * k_deg_1
   + 16 p[4,4] * k_reg ] = 0
 Equation_3,_4: [ p[2,4] * k_tx_1 + p[3,3] * k_tx_2 - p[3,4] * k_tx_1
   - p[3,4] * k_tx_2 - 3 p[3,4] * k_deg_1 - 4 p[3,4] * k_deg_2
   - 12 p[3,4] * k_reg + 5 p[3,5] * k_deg_2 + 4 p[4,4] * k_deg_1
   + 20 p[4,5] * k_reg ] = 0
 Equation_4,_0: [ p[3,0] * k_tx_1 - p[4,0] * k_tx_1 - p[4,0] * k_tx_2
   - 4 p[4,0] * k_deg_1 + p[4,1] * k_deg_2 + 5 p[5,0] * k_deg_1
   + 5 p[5,1] * k_reg ] = 0
 Equation_4,_1: [ p[3,1] * k_tx_1 + p[4,0] * k_tx_2 - p[4,1] * k_tx_1
   - p[4,1] * k_tx_2 - 4 p[4,1] * k_deg_1 - p[4,1] * k_deg_2
   - 4 p[4,1] * k_reg + 2 p[4,2] * k_deg_2 + 5 p[5,1] * k_deg_1
   + 10 p[5,2] * k_reg ] = 0
 Equation_4,_2: [ p[3,2] * k_tx_1 + p[4,1] * k_tx_2 - p[4,2] * k_tx_1
   - p[4,2] * k_tx_2 - 4 p[4,2] * k_deg_1 - 2 p[4,2] * k_deg_2
   - 8 p[4,2] * k_reg + 3 p[4,3] * k_deg_2 + 5 p[5,2] * k_deg_1
   + 15 p[5,3] * k_reg ] = 0
 Equation_4,_3: [ p[3,3] * k_tx_1 + p[4,2] * k_tx_2 - p[4,3] * k_tx_1
   - p[4,3] * k_tx_2 - 4 p[4,3] * k_deg_1 - 3 p[4,3] * k_deg_2
   - 12 p[4,3] * k_reg + 4 p[4,4] * k_deg_2 + 5 p[5,3] * k_deg_1
   + 20 p[5,4] * k_reg ] = 0
 Equation_4,_4: [ p[3,4] * k_tx_1 + p[4,3] * k_tx_2 - p[4,4] * k_tx_1
   - p[4,4] * k_tx_2 - 4 p[4,4] * k_deg_1 - 4 p[4,4] * k_deg_2
   - 16 p[4,4] * k_reg + 5 p[4,5] * k_deg_2 + 5 p[5,4] * k_deg_1
   + 25 p[5,5] * k_reg ] = 0
Bounds
 p[0,0] <= 1
 p[0,1] <= 1
 p[0,2] <= 1
 p[0,3] <= 1
 p[0,4] <= 1
 p[0,5] <= 1
 p[1,0] <= 1
 p[1,1] <= 1
 p[1,2] <= 1
 p[1,3] <= 1
 p[1,4] <= 1
 p[1,5] <= 1
 p[2,0] <= 1
 p[2,1] <= 1
 p[2,2] <= 1
 p[2,3] <= 1
 p[2,4] <= 1
 p[2,5] <= 1
 p[3,0] <= 1
 p[3,1] <= 1
 p[3,2] <= 1
 p[3,3] <= 1
 p[3,4] <= 1
 p[3,5] <= 1
 p[4,0] <= 1
 p[4,1] <= 1
 p[4,2] <= 1
 p[4,3] <= 1
 p[4,4] <= 1
 p[4,5] <= 1
 p[5,0] <= 1
 p[5,1] <= 1
 p[5,2] <= 1
 p[5,3] <= 1
 p[5,4] <= 1
 p[5,5] <= 1
 p1[0] <= 1
 p1[1] <= 1
 p1[2] <= 1
 p1[3] <= 1
 p1[4] <= 1
 p1[5] <= 1
 p2[0] <= 1
 p2[1] <= 1
 p2[2] <= 1
 p2[3] <= 1
 p2[4] <= 1
 p2[5] <= 1
 k_tx_1 <= 10
 k_tx_2 <= 10
 k_deg_1 <= 10
 k_deg_2 <= 10
 k_reg <= 10
End
